/* Objective function */
min: -300 X_k_p_1 -300 X_k_p_2 -300 X_k_p_3 -300 X_k_p_4 -300 X_k_p_5 -550 X_k_q_1 -550 X_k_q_2 -550 X_k_q_3
 -550 X_k_q_4 -550 X_k_q_5 -700 X_k_r_1 -700 X_k_r_2 -700 X_k_r_3 -700 X_k_r_4 -700 X_k_r_5 -950 X_k_s_1
 -950 X_k_s_2 -950 X_k_s_3 -950 X_k_s_4 -950 X_k_s_5 -450 X_l_p_1 -450 X_l_p_2 -450 X_l_p_3 -450 X_l_p_4
 -450 X_l_p_5 -825 X_l_q_1 -825 X_l_q_2 -825 X_l_q_3 -825 X_l_q_4 -825 X_l_q_5 -1050 X_l_r_1 -1050 X_l_r_2
 -1050 X_l_r_3 -1050 X_l_r_4 -1050 X_l_r_5 -1425 X_l_s_1 -1425 X_l_s_2 -1425 X_l_s_3 -1425 X_l_s_4 -1425 X_l_s_5
 -600 X_m_p_1 -600 X_m_p_2 -600 X_m_p_3 -600 X_m_p_4 -600 X_m_p_5 -1100 X_m_q_1 -1100 X_m_q_2 -1100 X_m_q_3
 -1100 X_m_q_4 -1100 X_m_q_5 -1400 X_m_r_1 -1400 X_m_r_2 -1400 X_m_r_3 -1400 X_m_r_4 -1400 X_m_r_5 -1900 X_m_s_1
 -1900 X_m_s_2 -1900 X_m_s_3 -1900 X_m_s_4 -1900 X_m_s_5 -300 X_n_p_1 -300 X_n_p_2 -300 X_n_p_3 -300 X_n_p_4
 -300 X_n_p_5 -550 X_n_q_1 -550 X_n_q_2 -550 X_n_q_3 -550 X_n_q_4 -550 X_n_q_5 -700 X_n_r_1 -700 X_n_r_2
 -700 X_n_r_3 -700 X_n_r_4 -700 X_n_r_5 -950 X_n_s_1 -950 X_n_s_2 -950 X_n_s_3 -950 X_n_s_4 -950 X_n_s_5;

/* Constraints */
A_k_1: +X_k_p_1 +X_k_q_1 +X_k_r_1 +X_k_s_1 = 1;
A_k_2: +X_k_p_2 +X_k_q_2 +X_k_r_2 +X_k_s_2 = 1;
A_k_3: +X_k_p_3 +X_k_q_3 +X_k_r_3 +X_k_s_3 = 1;
A_k_4: +X_k_p_4 +X_k_q_4 +X_k_r_4 +X_k_s_4 = 1;
A_k_5: +X_k_p_5 +X_k_q_5 +X_k_r_5 +X_k_s_5 = 1;
A_l_1: +X_l_p_1 +X_l_q_1 +X_l_r_1 +X_l_s_1 = 1;
A_l_2: +X_l_p_2 +X_l_q_2 +X_l_r_2 +X_l_s_2 = 1;
A_l_3: +X_l_p_3 +X_l_q_3 +X_l_r_3 +X_l_s_3 = 1;
A_l_4: +X_l_p_4 +X_l_q_4 +X_l_r_4 +X_l_s_4 = 1;
A_l_5: +X_l_p_5 +X_l_q_5 +X_l_r_5 +X_l_s_5 = 1;
A_m_1: +X_m_p_1 +X_m_q_1 +X_m_r_1 +X_m_s_1 = 1;
A_m_2: +X_m_p_2 +X_m_q_2 +X_m_r_2 +X_m_s_2 = 1;
A_m_3: +X_m_p_3 +X_m_q_3 +X_m_r_3 +X_m_s_3 = 1;
A_m_4: +X_m_p_4 +X_m_q_4 +X_m_r_4 +X_m_s_4 = 1;
A_m_5: +X_m_p_5 +X_m_q_5 +X_m_r_5 +X_m_s_5 = 1;
A_n_1: +X_n_p_1 +X_n_q_1 +X_n_r_1 +X_n_s_1 = 1;
A_n_2: +X_n_p_2 +X_n_q_2 +X_n_r_2 +X_n_s_2 = 1;
A_n_3: +X_n_p_3 +X_n_q_3 +X_n_r_3 +X_n_s_3 = 1;
A_n_4: +X_n_p_4 +X_n_q_4 +X_n_r_4 +X_n_s_4 = 1;
A_n_5: +X_n_p_5 +X_n_q_5 +X_n_r_5 +X_n_s_5 = 1;
B_k_p_2: +X_k_p_1 +X_k_p_2 <= 1;
B_k_p_3: +X_k_p_2 +X_k_p_3 <= 1;
B_k_p_4: +X_k_p_3 +X_k_p_4 <= 1;
B_k_p_5: +X_k_p_4 +X_k_p_5 <= 1;
B_k_q_2: +X_k_q_1 +X_k_q_2 <= 1;
B_k_q_3: +X_k_q_2 +X_k_q_3 <= 1;
B_k_q_4: +X_k_q_3 +X_k_q_4 <= 1;
B_k_q_5: +X_k_q_4 +X_k_q_5 <= 1;
B_k_r_2: +X_k_r_1 +X_k_r_2 <= 1;
B_k_r_3: +X_k_r_2 +X_k_r_3 <= 1;
B_k_r_4: +X_k_r_3 +X_k_r_4 <= 1;
B_k_r_5: +X_k_r_4 +X_k_r_5 <= 1;
B_k_s_2: +X_k_s_1 +X_k_s_2 <= 1;
B_k_s_3: +X_k_s_2 +X_k_s_3 <= 1;
B_k_s_4: +X_k_s_3 +X_k_s_4 <= 1;
B_k_s_5: +X_k_s_4 +X_k_s_5 <= 1;
B_l_p_2: +X_l_p_1 +X_l_p_2 <= 1;
B_l_p_3: +X_l_p_2 +X_l_p_3 <= 1;
B_l_p_4: +X_l_p_3 +X_l_p_4 <= 1;
B_l_p_5: +X_l_p_4 +X_l_p_5 <= 1;
B_l_q_2: +X_l_q_1 +X_l_q_2 <= 1;
B_l_q_3: +X_l_q_2 +X_l_q_3 <= 1;
B_l_q_4: +X_l_q_3 +X_l_q_4 <= 1;
B_l_q_5: +X_l_q_4 +X_l_q_5 <= 1;
B_l_r_2: +X_l_r_1 +X_l_r_2 <= 1;
B_l_r_3: +X_l_r_2 +X_l_r_3 <= 1;
B_l_r_4: +X_l_r_3 +X_l_r_4 <= 1;
B_l_r_5: +X_l_r_4 +X_l_r_5 <= 1;
B_l_s_2: +X_l_s_1 +X_l_s_2 <= 1;
B_l_s_3: +X_l_s_2 +X_l_s_3 <= 1;
B_l_s_4: +X_l_s_3 +X_l_s_4 <= 1;
B_l_s_5: +X_l_s_4 +X_l_s_5 <= 1;
B_m_p_2: +X_m_p_1 +X_m_p_2 <= 1;
B_m_p_3: +X_m_p_2 +X_m_p_3 <= 1;
B_m_p_4: +X_m_p_3 +X_m_p_4 <= 1;
B_m_p_5: +X_m_p_4 +X_m_p_5 <= 1;
B_m_q_2: +X_m_q_1 +X_m_q_2 <= 1;
B_m_q_3: +X_m_q_2 +X_m_q_3 <= 1;
B_m_q_4: +X_m_q_3 +X_m_q_4 <= 1;
B_m_q_5: +X_m_q_4 +X_m_q_5 <= 1;
B_m_r_2: +X_m_r_1 +X_m_r_2 <= 1;
B_m_r_3: +X_m_r_2 +X_m_r_3 <= 1;
B_m_r_4: +X_m_r_3 +X_m_r_4 <= 1;
B_m_r_5: +X_m_r_4 +X_m_r_5 <= 1;
B_m_s_2: +X_m_s_1 +X_m_s_2 <= 1;
B_m_s_3: +X_m_s_2 +X_m_s_3 <= 1;
B_m_s_4: +X_m_s_3 +X_m_s_4 <= 1;
B_m_s_5: +X_m_s_4 +X_m_s_5 <= 1;
B_n_p_2: +X_n_p_1 +X_n_p_2 <= 1;
B_n_p_3: +X_n_p_2 +X_n_p_3 <= 1;
B_n_p_4: +X_n_p_3 +X_n_p_4 <= 1;
B_n_p_5: +X_n_p_4 +X_n_p_5 <= 1;
B_n_q_2: +X_n_q_1 +X_n_q_2 <= 1;
B_n_q_3: +X_n_q_2 +X_n_q_3 <= 1;
B_n_q_4: +X_n_q_3 +X_n_q_4 <= 1;
B_n_q_5: +X_n_q_4 +X_n_q_5 <= 1;
B_n_r_2: +X_n_r_1 +X_n_r_2 <= 1;
B_n_r_3: +X_n_r_2 +X_n_r_3 <= 1;
B_n_r_4: +X_n_r_3 +X_n_r_4 <= 1;
B_n_r_5: +X_n_r_4 +X_n_r_5 <= 1;
B_n_s_2: +X_n_s_1 +X_n_s_2 <= 1;
B_n_s_3: +X_n_s_2 +X_n_s_3 <= 1;
B_n_s_4: +X_n_s_3 +X_n_s_4 <= 1;
B_n_s_5: +X_n_s_4 +X_n_s_5 <= 1;
C_p_1: +X_k_p_1 +X_l_p_1 +X_m_p_1 +X_n_p_1 >= 1;
C_p_2: +X_k_p_2 +X_l_p_2 +X_m_p_2 +X_n_p_2 >= 1;
C_p_3: +X_k_p_3 +X_l_p_3 +X_m_p_3 +X_n_p_3 >= 1;
C_p_4: +X_k_p_4 +X_l_p_4 +X_m_p_4 +X_n_p_4 >= 1;
C_p_5: +X_k_p_5 +X_l_p_5 +X_m_p_5 +X_n_p_5 >= 1;
C_q_1: +X_k_q_1 +X_l_q_1 +X_m_q_1 +X_n_q_1 >= 1;
C_q_2: +X_k_q_2 +X_l_q_2 +X_m_q_2 +X_n_q_2 >= 1;
C_q_3: +X_k_q_3 +X_l_q_3 +X_m_q_3 +X_n_q_3 >= 1;
C_q_4: +X_k_q_4 +X_l_q_4 +X_m_q_4 +X_n_q_4 >= 1;
C_q_5: +X_k_q_5 +X_l_q_5 +X_m_q_5 +X_n_q_5 >= 1;
C_r_1: +X_k_r_1 +X_l_r_1 +X_m_r_1 +X_n_r_1 >= 1;
C_r_2: +X_k_r_2 +X_l_r_2 +X_m_r_2 +X_n_r_2 >= 1;
C_r_3: +X_k_r_3 +X_l_r_3 +X_m_r_3 +X_n_r_3 >= 1;
C_r_4: +X_k_r_4 +X_l_r_4 +X_m_r_4 +X_n_r_4 >= 1;
C_r_5: +X_k_r_5 +X_l_r_5 +X_m_r_5 +X_n_r_5 >= 1;
C_s_1: +X_k_s_1 +X_l_s_1 +X_m_s_1 +X_n_s_1 >= 1;
C_s_2: +X_k_s_2 +X_l_s_2 +X_m_s_2 +X_n_s_2 >= 1;
C_s_3: +X_k_s_3 +X_l_s_3 +X_m_s_3 +X_n_s_3 >= 1;
C_s_4: +X_k_s_4 +X_l_s_4 +X_m_s_4 +X_n_s_4 >= 1;
C_s_5: +X_k_s_5 +X_l_s_5 +X_m_s_5 +X_n_s_5 >= 1;

/* Variable bounds */
X_k_p_1 <= 1;
X_k_p_2 <= 1;
X_k_p_3 <= 1;
X_k_p_4 <= 1;
X_k_p_5 <= 1;
X_k_q_1 <= 1;
X_k_q_2 <= 1;
X_k_q_3 <= 1;
X_k_q_4 <= 1;
X_k_q_5 <= 1;
X_k_r_1 <= 1;
X_k_r_2 <= 1;
X_k_r_3 <= 1;
X_k_r_4 <= 1;
X_k_r_5 <= 1;
X_k_s_1 <= 1;
X_k_s_2 <= 1;
X_k_s_3 <= 1;
X_k_s_4 <= 1;
X_k_s_5 <= 1;
X_l_p_1 <= 1;
X_l_p_2 <= 1;
X_l_p_3 <= 1;
X_l_p_4 <= 1;
X_l_p_5 <= 1;
X_l_q_1 <= 1;
X_l_q_2 <= 1;
X_l_q_3 <= 1;
X_l_q_4 <= 1;
X_l_q_5 <= 1;
X_l_r_1 <= 1;
X_l_r_2 <= 1;
X_l_r_3 <= 1;
X_l_r_4 <= 1;
X_l_r_5 <= 1;
X_l_s_1 <= 1;
X_l_s_2 <= 1;
X_l_s_3 <= 1;
X_l_s_4 <= 1;
X_l_s_5 <= 1;
X_m_p_1 <= 1;
X_m_p_2 <= 1;
X_m_p_3 <= 1;
X_m_p_4 <= 1;
X_m_p_5 <= 1;
X_m_q_1 <= 1;
X_m_q_2 <= 1;
X_m_q_3 <= 1;
X_m_q_4 <= 1;
X_m_q_5 <= 1;
X_m_r_1 <= 1;
X_m_r_2 <= 1;
X_m_r_3 <= 1;
X_m_r_4 <= 1;
X_m_r_5 <= 1;
X_m_s_1 <= 1;
X_m_s_2 <= 1;
X_m_s_3 <= 1;
X_m_s_4 <= 1;
X_m_s_5 <= 1;
X_n_p_1 <= 1;
X_n_p_2 <= 1;
X_n_p_3 <= 1;
X_n_p_4 <= 1;
X_n_p_5 <= 1;
X_n_q_1 <= 1;
X_n_q_2 <= 1;
X_n_q_3 <= 1;
X_n_q_4 <= 1;
X_n_q_5 <= 1;
X_n_r_1 <= 1;
X_n_r_2 <= 1;
X_n_r_3 <= 1;
X_n_r_4 <= 1;
X_n_r_5 <= 1;
X_n_s_1 <= 1;
X_n_s_2 <= 1;
X_n_s_3 <= 1;
X_n_s_4 <= 1;
X_n_s_5 <= 1;

/* Integer definitions */
int X_k_p_1,X_k_p_2,X_k_p_3,X_k_p_4,X_k_p_5,X_k_q_1,X_k_q_2,X_k_q_3,X_k_q_4,X_k_q_5,X_k_r_1,X_k_r_2,X_k_r_3,X_k_r_4,X_k_r_5,X_k_s_1,X_k_s_2,X_k_s_3,X_k_s_4,X_k_s_5,X_l_p_1,X_l_p_2,X_l_p_3,X_l_p_4,X_l_p_5,X_l_q_1,X_l_q_2,X_l_q_3,X_l_q_4,X_l_q_5,X_l_r_1,X_l_r_2,X_l_r_3,X_l_r_4,X_l_r_5,X_l_s_1,X_l_s_2,X_l_s_3,X_l_s_4,X_l_s_5,X_m_p_1,X_m_p_2,X_m_p_3,X_m_p_4,X_m_p_5,X_m_q_1,X_m_q_2,X_m_q_3,X_m_q_4,X_m_q_5,X_m_r_1,X_m_r_2,X_m_r_3,X_m_r_4,X_m_r_5,X_m_s_1,X_m_s_2,X_m_s_3,X_m_s_4,X_m_s_5,X_n_p_1,X_n_p_2,X_n_p_3,X_n_p_4,X_n_p_5,X_n_q_1,X_n_q_2,X_n_q_3,X_n_q_4,X_n_q_5,X_n_r_1,X_n_r_2,X_n_r_3,X_n_r_4,X_n_r_5,X_n_s_1,X_n_s_2,X_n_s_3,X_n_s_4,X_n_s_5;
